\ This file was automatically generated by Zimpl
\ param n    := 20;
\ param m    := 14;
\ set I    := { 1 .. m };
\ set J    := { 1 .. n };
\ set K    := { n+1 .. 2*n };
\ set Classes   := {<1,1>, <2,0>, <3,1>, <4,1>, <5,1>, <6,1>, <7,0>, <8,1>, <9,1>, <10,1>, <11,0>, <12,0>, <13,0>, <14,0>};
\ do print Classes;
\ set Positive   := { <k,l> in Classes with l == 1 };
\ do print Positive;
\ set Negative   := { <k,l> in Classes with l == 0 };
\ do print Negative;
\ param a[I*J]  :=     |1,2,3,4,5,6,7,8,9,10,11,12,13,14,15,16,17,18,19,20| |1|0,0,0,0,0,0,0,0,0,0,0,0,0,1,1,1,1,1,0,0| |2|1,1,
\ 1,1,1,1,1,1,1,1,1,1,1,1,1,1,1,1,1,1| |3|0,0,0,0,0,0,0,0,0,0,0,0,0,1,1,1,0,0,0,0| |4|0,0,0,0,0,0,0,0,0,0,0,1,1,1,1,1,1,1,1,1| 
\ |5|0,0,0,0,0,0,1,0,0,0,0,0,0,1,1,1,1,1,0,0| |6|0,0,0,0,0,0,0,0,0,0,0,0,0,1,0,0,0,0,0,0| |7|0,0,0,0,0,0,0,0,0,0,0,0,0,0,0,0,0,
\ 0,0,0| |8|0,0,0,1,1,1,1,1,1,1,1,1,1,1,1,1,1,1,1,1| |9|0,0,0,0,0,0,1,0,0,0,0,1,1,1,1,1,1,1,1,1| |10|0,0,0,0,0,0,1,0,1,1,1,1,1,
\ 1,1,1,1,1,1,1| |11|0,0,0,0,0,0,0,0,1,1,1,1,1,1,1,1,1,1,1,1| |12|0,0,0,0,0,0,0,1,1,1,1,1,1,1,1,1,1,1,1,1| |13|0,0,0,0,1,1,0,1,
\ 1,1,1,1,1,1,1,1,1,1,1,1| |14|0,0,1,1,1,1,0,1,1,1,1,1,1,1,1,1,1,1,1,1|;
\ param aneg[I*K]  :=     |21,22,23,24,25,26,27,28,29,30,31,32,33,34,35,36,37,38,39,40| |1|1,1,1,1,1,1,1,1,1,1,1,1,1,0,0,0,0,0,
\ 1,1| |2|0,0,0,0,0,0,0,0,0,0,0,0,0,0,0,0,0,0,0,0| |3|1,1,1,1,1,1,1,1,1,1,1,1,1,0,0,0,1,1,1,1| |4|1,1,1,1,1,1,1,1,1,1,1,0,0,0,0
\ ,0,0,0,0,0| |5|1,1,1,1,1,1,0,1,1,1,1,1,1,0,0,0,0,0,1,1| |6|1,1,1,1,1,1,1,1,1,1,1,1,1,0,1,1,1,1,1,1| |7|1,1,1,1,1,1,1,1,1,1,1,
\ 1,1,1,1,1,1,1,1,1| |8|1,1,1,0,0,0,0,0,0,0,0,0,0,0,0,0,0,0,0,0| |9|1,1,1,1,1,1,0,1,1,1,1,0,0,0,0,0,0,0,0,0| |10|1,1,1,1,1,1,0,
\ 1,0,0,0,0,0,0,0,0,0,0,0,0| |11|1,1,1,1,1,1,1,1,0,0,0,0,0,0,0,0,0,0,0,0| |12|1,1,1,1,1,1,1,0,0,0,0,0,0,0,0,0,0,0,0,0| |13|1,1,
\ 1,1,0,0,1,0,0,0,0,0,0,0,0,0,0,0,0,0| |14|1,1,0,0,0,0,1,0,0,0,0,0,0,0,0,0,0,0,0,0|;
\ var Y[Positive] binary;
\ var X[J] binary;
\ var Xneg[K] binary;
\ var degree integer >= 1 <= n ;
\ minimize notcovered: sum <k,l> in Positive: Y[k,l];
\ subto onlyone:  forall <j> in J do   X[j] + Xneg[j+n] <= 1 ;
\ subto patterndegree: sum <j> in J : X[j] + sum <k> in K : Xneg[k] == degree;
\ subto opposallnotcovered:  forall <i,l> in Negative do     sum <j> in J : (a[i,j] * X[j]) + sum <k> in K : (aneg[i,k] * Xneg[
\ k]) <= degree - 1;
\ subto atleastonecovered: forall <i,l> in Positive do     sum <j> in J : a[i,j] * X[j] + n * Y[i,l] + sum <k> in K : aneg[i,k]
\  * Xneg[k] + n * Y[i,l] >= degree;
\Problem name: 2018-2019/MIPsForLAD/strongest_HOUS_mu6/strongest_hous_mu6.zpl
Minimize
 notcovered:  + Y#1#1 + Y#3#1 + Y#4#1 + Y#5#1 + Y#6#1 + Y#8#1
  + Y#9#1 + Y#10#1
Subject to
 onlyone_1:
  + Xneg#21 + X#1 <= 1
 onlyone_2:
  + Xneg#22 + X#2 <= 1
 onlyone_3:
  + Xneg#23 + X#3 <= 1
 onlyone_4:
  + Xneg#24 + X#4 <= 1
 onlyone_5:
  + Xneg#25 + X#5 <= 1
 onlyone_6:
  + Xneg#26 + X#6 <= 1
 onlyone_7:
  + Xneg#27 + X#7 <= 1
 onlyone_8:
  + Xneg#28 + X#8 <= 1
 onlyone_9:
  + Xneg#29 + X#9 <= 1
 onlyone_10:
  + Xneg#30 + X#10 <= 1
 onlyone_11:
  + Xneg#31 + X#11 <= 1
 onlyone_12:
  + Xneg#32 + X#12 <= 1
 onlyone_13:
  + Xneg#33 + X#13 <= 1
 onlyone_14:
  + Xneg#34 + X#14 <= 1
 onlyone_15:
  + Xneg#35 + X#15 <= 1
 onlyone_16:
  + Xneg#36 + X#16 <= 1
 onlyone_17:
  + Xneg#37 + X#17 <= 1
 onlyone_18:
  + Xneg#38 + X#18 <= 1
 onlyone_19:
  + Xneg#39 + X#19 <= 1
 onlyone_20:
  + Xneg#40 + X#20 <= 1
 patterndegree_1:
  - degree + Xneg#40 + Xneg#39 + Xneg#38 + Xneg#37 + Xneg#36
  + Xneg#35 + Xneg#34 + Xneg#33 + Xneg#32 + Xneg#31 + Xneg#30
  + Xneg#29 + Xneg#28 + Xneg#27 + Xneg#26 + Xneg#25 + Xneg#24
  + Xneg#23 + Xneg#22 + Xneg#21 + X#20 + X#19 + X#18
  + X#17 + X#16 + X#15 + X#14 + X#13 + X#12
  + X#11 + X#10 + X#9 + X#8 + X#7 + X#6
  + X#5 + X#4 + X#3 + X#2 + X#1 = 0
 opposallnotco@15:
  - degree + X#20 + X#19 + X#18 + X#17 + X#16
  + X#15 + X#14 + X#13 + X#12 + X#11 + X#10
  + X#9 + X#8 + X#7 + X#6 + X#5 + X#4
  + X#3 + X#2 + X#1 <= -1
 opposallnotco@16:
  - degree + Xneg#40 + Xneg#39 + Xneg#38 + Xneg#37 + Xneg#36
  + Xneg#35 + Xneg#34 + Xneg#33 + Xneg#32 + Xneg#31 + Xneg#30
  + Xneg#29 + Xneg#28 + Xneg#27 + Xneg#26 + Xneg#25 + Xneg#24
  + Xneg#23 + Xneg#22 + Xneg#21 <= -1
 opposallnotco@17:
  - degree + Xneg#28 + Xneg#27 + Xneg#26 + Xneg#25 + Xneg#24
  + Xneg#23 + Xneg#22 + Xneg#21 + X#20 + X#19 + X#18
  + X#17 + X#16 + X#15 + X#14 + X#13 + X#12
  + X#11 + X#10 + X#9 <= -1
 opposallnotco@18:
  - degree + Xneg#27 + Xneg#26 + Xneg#25 + Xneg#24 + Xneg#23
  + Xneg#22 + Xneg#21 + X#20 + X#19 + X#18 + X#17
  + X#16 + X#15 + X#14 + X#13 + X#12 + X#11
  + X#10 + X#9 + X#8 <= -1
 opposallnotco@19:
  - degree + Xneg#27 + Xneg#24 + Xneg#23 + Xneg#22 + Xneg#21
  + X#20 + X#19 + X#18 + X#17 + X#16 + X#15
  + X#14 + X#13 + X#12 + X#11 + X#10 + X#9
  + X#8 + X#6 + X#5 <= -1
 opposallnotco@1a:
  - degree + Xneg#27 + Xneg#22 + Xneg#21 + X#20 + X#19
  + X#18 + X#17 + X#16 + X#15 + X#14 + X#13
  + X#12 + X#11 + X#10 + X#9 + X#8 + X#6
  + X#5 + X#4 + X#3 <= -1
 atleastonecov@1b:
  - degree + Xneg#40 + Xneg#39 + Xneg#33 + Xneg#32 + Xneg#31
  + Xneg#30 + Xneg#29 + Xneg#28 + Xneg#27 + Xneg#26 + Xneg#25
  + Xneg#24 + Xneg#23 + Xneg#22 + Xneg#21 +40 Y#1#1 + X#18
  + X#17 + X#16 + X#15 + X#14 >= 0
 atleastonecov@1c:
  - degree + Xneg#40 + Xneg#39 + Xneg#38 + Xneg#37 + Xneg#33
  + Xneg#32 + Xneg#31 + Xneg#30 + Xneg#29 + Xneg#28 + Xneg#27
  + Xneg#26 + Xneg#25 + Xneg#24 + Xneg#23 + Xneg#22 + Xneg#21
  +40 Y#3#1 + X#16 + X#15 + X#14 >= 0
 atleastonecov@1d:
  - degree + Xneg#31 + Xneg#30 + Xneg#29 + Xneg#28 + Xneg#27
  + Xneg#26 + Xneg#25 + Xneg#24 + Xneg#23 + Xneg#22 + Xneg#21
  +40 Y#4#1 + X#20 + X#19 + X#18 + X#17 + X#16
  + X#15 + X#14 + X#13 + X#12 >= 0
 atleastonecov@1e:
  - degree + Xneg#40 + Xneg#39 + Xneg#33 + Xneg#32 + Xneg#31
  + Xneg#30 + Xneg#29 + Xneg#28 + Xneg#26 + Xneg#25 + Xneg#24
  + Xneg#23 + Xneg#22 + Xneg#21 +40 Y#5#1 + X#18 + X#17
  + X#16 + X#15 + X#14 + X#7 >= 0
 atleastonecov@1f:
  - degree + Xneg#40 + Xneg#39 + Xneg#38 + Xneg#37 + Xneg#36
  + Xneg#35 + Xneg#33 + Xneg#32 + Xneg#31 + Xneg#30 + Xneg#29
  + Xneg#28 + Xneg#27 + Xneg#26 + Xneg#25 + Xneg#24 + Xneg#23
  + Xneg#22 + Xneg#21 +40 Y#6#1 + X#14 >= 0
 atleastonecov@20:
  - degree + Xneg#23 + Xneg#22 + Xneg#21 +40 Y#8#1 + X#20
  + X#19 + X#18 + X#17 + X#16 + X#15 + X#14
  + X#13 + X#12 + X#11 + X#10 + X#9 + X#8
  + X#7 + X#6 + X#5 + X#4 >= 0
 atleastonecov@21:
  - degree + Xneg#31 + Xneg#30 + Xneg#29 + Xneg#28 + Xneg#26
  + Xneg#25 + Xneg#24 + Xneg#23 + Xneg#22 + Xneg#21 +40 Y#9#1
  + X#20 + X#19 + X#18 + X#17 + X#16 + X#15
  + X#14 + X#13 + X#12 + X#7 >= 0
 atleastonecov@22:
  - degree + Xneg#28 + Xneg#26 + Xneg#25 + Xneg#24 + Xneg#23
  + Xneg#22 + Xneg#21 +40 Y#10#1 + X#20 + X#19 + X#18
  + X#17 + X#16 + X#15 + X#14 + X#13 + X#12
  + X#11 + X#10 + X#9 + X#7 >= 0
Bounds
 0 <= Y#1#1 <= 1
 0 <= Y#3#1 <= 1
 0 <= Y#4#1 <= 1
 0 <= Y#5#1 <= 1
 0 <= Y#6#1 <= 1
 0 <= Y#8#1 <= 1
 0 <= Y#9#1 <= 1
 0 <= Y#10#1 <= 1
 0 <= X#1 <= 1
 0 <= X#2 <= 1
 0 <= X#3 <= 1
 0 <= X#4 <= 1
 0 <= X#5 <= 1
 0 <= X#6 <= 1
 0 <= X#7 <= 1
 0 <= X#8 <= 1
 0 <= X#9 <= 1
 0 <= X#10 <= 1
 0 <= X#11 <= 1
 0 <= X#12 <= 1
 0 <= X#13 <= 1
 0 <= X#14 <= 1
 0 <= X#15 <= 1
 0 <= X#16 <= 1
 0 <= X#17 <= 1
 0 <= X#18 <= 1
 0 <= X#19 <= 1
 0 <= X#20 <= 1
 0 <= Xneg#21 <= 1
 0 <= Xneg#22 <= 1
 0 <= Xneg#23 <= 1
 0 <= Xneg#24 <= 1
 0 <= Xneg#25 <= 1
 0 <= Xneg#26 <= 1
 0 <= Xneg#27 <= 1
 0 <= Xneg#28 <= 1
 0 <= Xneg#29 <= 1
 0 <= Xneg#30 <= 1
 0 <= Xneg#31 <= 1
 0 <= Xneg#32 <= 1
 0 <= Xneg#33 <= 1
 0 <= Xneg#34 <= 1
 0 <= Xneg#35 <= 1
 0 <= Xneg#36 <= 1
 0 <= Xneg#37 <= 1
 0 <= Xneg#38 <= 1
 0 <= Xneg#39 <= 1
 0 <= Xneg#40 <= 1
 1 <= degree <= 20
General
 Y#1#1
 Y#3#1
 Y#4#1
 Y#5#1
 Y#6#1
 Y#8#1
 Y#9#1
 Y#10#1
 X#1
 X#2
 X#3
 X#4
 X#5
 X#6
 X#7
 X#8
 X#9
 X#10
 X#11
 X#12
 X#13
 X#14
 X#15
 X#16
 X#17
 X#18
 X#19
 X#20
 Xneg#21
 Xneg#22
 Xneg#23
 Xneg#24
 Xneg#25
 Xneg#26
 Xneg#27
 Xneg#28
 Xneg#29
 Xneg#30
 Xneg#31
 Xneg#32
 Xneg#33
 Xneg#34
 Xneg#35
 Xneg#36
 Xneg#37
 Xneg#38
 Xneg#39
 Xneg#40
 degree
End
